\ This file has been generated by DOcplex
\ ENCODING=ISO-8859-1
\Problem name: random_problem.lp

Minimize
 obj: - 44 x0 - 22 x1 + 400 x2 + 200 x3 - 246 x4 - 123 x5 + 10 x6 + 5 x7
      - 402 x8 - 201 x9 - 198 x10 - 99 x11 + 116 x12 + 58 x13 + [ 1168 x0^2
      + 1168 x0*x1 + 2416 x0*x2 + 1208 x0*x3 + 736 x0*x4 + 368 x0*x5
      + 1296 x0*x6 + 648 x0*x7 + 640 x0*x8 + 320 x0*x9 + 48 x0*x10 + 24 x0*x11
      + 288 x0*x12 + 144 x0*x13 + 292 x1^2 + 1208 x1*x2 + 604 x1*x3 + 368 x1*x4
      + 184 x1*x5 + 648 x1*x6 + 324 x1*x7 + 320 x1*x8 + 160 x1*x9 + 24 x1*x10
      + 12 x1*x11 + 144 x1*x12 + 72 x1*x13 + 2528 x2^2 + 2528 x2*x3 + 304 x2*x4
      + 152 x2*x5 + 2784 x2*x6 + 1392 x2*x7 + 656 x2*x8 + 328 x2*x9 + 576 x2*x10
      + 288 x2*x11 + 896 x2*x12 + 448 x2*x13 + 632 x3^2 + 152 x3*x4 + 76 x3*x5
      + 1392 x3*x6 + 696 x3*x7 + 328 x3*x8 + 164 x3*x9 + 288 x3*x10 + 144 x3*x11
      + 448 x3*x12 + 224 x3*x13 + 688 x4^2 + 688 x4*x5 + 80 x4*x6 + 40 x4*x7
      + 464 x4*x8 + 232 x4*x9 + 208 x4*x10 + 104 x4*x11 - 128 x4*x12 - 64 x4*x13
      + 172 x5^2 + 40 x5*x6 + 20 x5*x7 + 232 x5*x8 + 116 x5*x9 + 104 x5*x10
      + 52 x5*x11 - 64 x5*x12 - 32 x5*x13 + 1000 x6^2 + 1000 x6*x7 + 304 x6*x8
      + 152 x6*x9 + 304 x6*x10 + 152 x6*x11 + 384 x6*x12 + 192 x6*x13 + 250 x7^2
      + 152 x7*x8 + 76 x7*x9 + 152 x7*x10 + 76 x7*x11 + 192 x7*x12 + 96 x7*x13
      + 424 x8^2 + 424 x8*x9 + 256 x8*x10 + 128 x8*x11 + 106 x9^2 + 128 x9*x10
      + 64 x9*x11 + 464 x10^2 + 464 x10*x11 + 240 x10*x12 + 120 x10*x13
      + 116 x11^2 + 120 x11*x12 + 60 x11*x13 + 560 x12^2 + 560 x12*x13
      + 140 x13^2 ]/2
Subject To
 c0: 2 x0 + x1 + 2 x2 + x3 + 2 x4 + x5 + 2 x6 + x7 + 2 x8 + x9 + 2 x10 + x11
     + 2 x12 + x13 = 3

Bounds
 0 <= x0 <= 1
 0 <= x1 <= 1
 0 <= x2 <= 1
 0 <= x3 <= 1
 0 <= x4 <= 1
 0 <= x5 <= 1
 0 <= x6 <= 1
 0 <= x7 <= 1
 0 <= x8 <= 1
 0 <= x9 <= 1
 0 <= x10 <= 1
 0 <= x11 <= 1
 0 <= x12 <= 1
 0 <= x13 <= 1

Binaries
 x0 x1 x2 x3 x4 x5 x6 x7 x8 x9 x10 x11 x12 x13
End
